\ This file has been generated by DOcplex
\ ENCODING=ISO-8859-1
\Problem name: Market Sharing Problem

Minimize
 obj: s_plus_0 + s_plus_1 + s_plus_2 + s_minus_0 + s_minus_1 + s_minus_2
Subject To
 demand_constraint_0: 44 x_0 + 47 x_1 + 64 x_2 + 67 x_3 + 67 x_4 + 9 x_5
                      + 83 x_6 + 21 x_7 + 36 x_8 + 87 x_9 + 70 x_10 + 88 x_11
                      + 88 x_12 + 12 x_13 + 58 x_14 + 65 x_15 + 39 x_16
                      + 87 x_17 + 46 x_18 + 88 x_19 + s_plus_0 - s_minus_0 = 
                      583
 demand_constraint_1: 81 x_0 + 37 x_1 + 25 x_2 + 77 x_3 + 72 x_4 + 9 x_5
                      + 20 x_6 + 80 x_7 + 69 x_8 + 79 x_9 + 47 x_10 + 64 x_11
                      + 82 x_12 + 99 x_13 + 88 x_14 + 49 x_15 + 29 x_16
                      + 19 x_17 + 19 x_18 + 14 x_19 + s_plus_1 - s_minus_1 = 
                      529
 demand_constraint_2: 39 x_0 + 32 x_1 + 65 x_2 + 9 x_3 + 57 x_4 + 32 x_5
                      + 31 x_6 + 74 x_7 + 23 x_8 + 35 x_9 + 75 x_10 + 55 x_11
                      + 28 x_12 + 34 x_13 + 36 x_16 + 53 x_17 + 5 x_18 + 38 x_19
                      + s_plus_2 - s_minus_2 = 360

Bounds
 0 <= x_0 <= 1
 0 <= x_1 <= 1
 0 <= x_2 <= 1
 0 <= x_3 <= 1
 0 <= x_4 <= 1
 0 <= x_5 <= 1
 0 <= x_6 <= 1
 0 <= x_7 <= 1
 0 <= x_8 <= 1
 0 <= x_9 <= 1
 0 <= x_10 <= 1
 0 <= x_11 <= 1
 0 <= x_12 <= 1
 0 <= x_13 <= 1
 0 <= x_14 <= 1
 0 <= x_15 <= 1
 0 <= x_16 <= 1
 0 <= x_17 <= 1
 0 <= x_18 <= 1
 0 <= x_19 <= 1
       s_plus_0 <= 1166
       s_plus_1 <= 1059
       s_plus_2 <= 721
       s_minus_0 <= 1166
       s_minus_1 <= 1059
       s_minus_2 <= 721

Binaries
 x_0 x_1 x_2 x_3 x_4 x_5 x_6 x_7 x_8 x_9 x_10 x_11 x_12 x_13 x_14 x_15 x_16 x_17
 x_18 x_19

Generals
 s_plus_0 s_plus_1 s_plus_2 s_minus_0 s_minus_1 s_minus_2
End
